
Gurobi 12.0.2 (win64) logging started Mon Nov 17 18:18:55 2025

Set parameter LogFile to value "C:\Users\utente\Desktop\TESI\Job_Shop_Scheduling_Benchmark_Environments_and_Instances\simulations\logs\experiment_logs\gurobi_exp5.log"
Set parameter OutputFlag to value 1
Set parameter TimeLimit to value 2000
Gurobi Optimizer version 12.0.2 build v12.0.2rc0 (win64 - Windows 10.0 (19045.2))

CPU model: Intel(R) Core(TM) i7-7500U CPU @ 2.70GHz, instruction set [SSE2|AVX|AVX2]
Thread count: 2 physical cores, 4 logical processors, using up to 4 threads

Non-default parameters:
TimeLimit  2000
NonConvex  2

Optimize a model with 63260 rows, 4343 columns and 311748 nonzeros
Model fingerprint: 0x16378766
Model has 15 quadratic constraints
Variable types: 0 continuous, 4343 integer (4200 binary)
Coefficient statistics:
  Matrix range     [1e+00, 3e+03]
  QMatrix range    [1e+00, 1e+00]
  QLMatrix range   [1e+00, 1e+00]
  Objective range  [1e+00, 1e+00]
  Bounds range     [1e+00, 1e+00]
  RHS range        [1e+00, 9e+03]

---------------------------------------------------------------------------
Multi-objectives: starting optimization with 2 objectives... 
---------------------------------------------------------------------------

Multi-objectives: applying initial presolve...
---------------------------------------------------------------------------

Presolve removed 36015 rows and 437 columns
Presolve time: 0.77s
Presolved: 27245 rows, 3906 columns, 106931 nonzeros

Multi-objectives: optimize objective 1 () ...
---------------------------------------------------------------------------

Presolve removed 13907 rows and 2828 columns
Presolve time: 0.27s
Presolved: 13338 rows, 1078 columns, 65730 nonzeros
Presolved model has 14 quadratic constraint(s)
Variable types: 0 continuous, 1078 integer (1009 binary)
Root relaxation presolved: 13324 rows, 1036 columns, 65688 nonzeros


Root relaxation: objective 1.000000e+00, 72 iterations, 0.04 seconds (0.06 work units)

    Nodes    |    Current Node    |     Objective Bounds      |     Work
 Expl Unexpl |  Obj  Depth IntInf | Incumbent    BestBd   Gap | It/Node Time

     0     0    1.00000    0    -          -    1.00000      -     -    1s
     0     0    1.00000    0   51          -    1.00000      -     -    1s
     0     0    1.00000    0   39          -    1.00000      -     -    1s
     0     0    1.00000    0   21          -    1.00000      -     -    1s
     0     0    1.00000    0   34          -    1.00000      -     -    1s
     0     0    1.00000    0   20          -    1.00000      -     -    1s
     0     0    1.00000    0   24          -    1.00000      -     -    1s
     0     0    1.00000    0   19          -    1.00000      -     -    1s
     0     0    1.00000    0   14          -    1.00000      -     -    2s
H    0     0                    8435.0000000    1.00000   100%     -    2s
H    0     0                    8392.0000000    1.00000   100%     -    2s
H    0     0                     291.0000000    1.00000   100%     -    2s
     0     0    1.00000    0   13  291.00000    1.00000   100%     -    2s
     0     0    1.00000    0    7  291.00000    1.00000   100%     -    2s
H    0     0                     232.0000000    1.00000   100%     -    2s
H    0     0                     215.0000000    1.00000   100%     -    2s
     0     0    1.00000    0   15  215.00000    1.00000   100%     -    2s
H    0     0                     140.0000000    1.00000  99.3%     -    2s
H    0     0                     112.0000000    1.00000  99.1%     -    2s
     0     0    1.00000    0   20  112.00000    1.00000  99.1%     -    2s
     0     0    1.00000    0   20  112.00000    1.00000  99.1%     -    2s
     0     0    1.00000    0   13  112.00000    1.00000  99.1%     -    3s
     0     0    1.00000    0    7  112.00000    1.00000  99.1%     -    3s
     0     0    1.00000    0   21  112.00000    1.00000  99.1%     -    3s
     0     0    1.00000    0   12  112.00000    1.00000  99.1%     -    3s
     0     0    1.00000    0   10  112.00000    1.00000  99.1%     -    3s
     0     0    1.00000    0   10  112.00000    1.00000  99.1%     -    3s
H    0     0                      68.0000000    1.00000  98.5%     -    3s
H    0     0                      67.0000000    1.00000  98.5%     -    3s
H    0     0                      66.0000000    1.00000  98.5%     -    3s
H    0     0                      53.0000000    1.00000  98.1%     -    3s
H    0     0                      36.0000000    1.00000  97.2%     -    3s
     0     2    1.00000    0   10   36.00000    1.00000  97.2%     -    3s
H   65    68                      35.0000000    1.00000  97.1%   7.2    3s
H  103   114                      12.0000000    1.00000  91.7%   6.5    4s
H  332   208                       9.0000000    1.00000  88.9%   5.8    4s
H  438   142                       5.0000000    1.00000  80.0%   5.5    4s
   439   143    3.00033   39   10    5.00000    1.00000  80.0%   5.5    5s
H  533   176                       4.0000000    1.00000  75.0%  13.2    6s

Cutting planes:
  Gomory: 6
  Cover: 12
  Projected implied bound: 1
  Clique: 1
  MIR: 1
  Flow cover: 20
  GUB cover: 2
  Inf proof: 2
  Zero half: 7
  RLT: 2

Explored 3217 nodes (37091 simplex iterations) in 7.73 seconds (6.79 work units)
Thread count was 4 (of 4 available processors)

Solution count 10: 4 5 5 ... 67

Optimal solution found (tolerance 1.00e-04)
Best objective 4.000000000000e+00, best bound 4.000000000000e+00, gap 0.0000%
---------------------------------------------------------------------------

Multi-objectives: optimize objective 2 () ...
---------------------------------------------------------------------------


Loaded user MIP start with objective 12


Explored 0 nodes (0 simplex iterations) in 7.76 seconds (6.79 work units)
Thread count was 1 (of 4 available processors)

Solution count 1: 12 

Optimal solution found (tolerance 1.00e-04)
Best objective 1.200000000000e+01, best bound 1.200000000000e+01, gap 0.0000%

---------------------------------------------------------------------------
Multi-objectives: solved in 7.77 seconds (6.79 work units), solution count 10


User-callback calls 12517, time in user-callback 0.04 sec
